NAME: instance_626
TYPE: TSP
DIMENSION: 20
EDGE_WEIGHT_TYPE: EUC_2D
NODE_COORD_SECTION
0 80.12 51.66
1 76.19 97.85
2 95.03 57.75
3 54.27 75.06
4 41.70 97.33
5 88.81 1.57
6 58.65 40.54
7 92.63 26.90
8 62.13 78.99
9 82.02 36.35
10 40.79 33.55
11 43.07 71.59
12 45.49 24.92
13 51.48 79.86
14 54.18 11.81
15 73.83 16.32
16 4.02 24.02
17 19.15 19.14
18 80.88 1.63
19 84.27 34.22
EOF
